param W_CLASS:=
1 0.1943332665899483
2 -0.056526512892841566
3 0.36420764967204067
4 0.20233807211366045
5 0.07699399529569173
6 0.1538163647445304
7 0.12140108300310014
8 0.08104260501631548
9 0.10293590214686336 ;

param B_CLASS:= 3.9446858696919755 ;